N: 1000
R: 1000
Capacities: 238732
------
Total value: 238732
Total weight: 238732
Packed Items: [0, 1, 2, 3, 4, 5, 6, 7, 8, 9, 10, 11, 12, 13, 14, 15, 16, 17, 18, 19, 20, 21, 22, 23, 24, 25, 26, 27, 28, 29, 30, 31, 32, 33, 34, 35, 36, 37, 38, 39, 40, 41, 42, 43, 44, 45, 46, 47, 48, 49, 50, 51, 52, 53, 54, 55, 56, 57, 58, 59, 60, 61, 62, 63, 64, 65, 66, 67, 68, 69, 70, 71, 72, 73, 74, 75, 76, 77, 78, 79, 80, 81, 82, 83, 84, 85, 86, 87, 88, 89, 90, 91, 92, 93, 94, 95, 96, 97, 98, 99, 100, 101, 102, 103, 104, 105, 106, 107, 108, 109, 110, 111, 112, 113, 114, 115, 116, 117, 118, 119, 120, 121, 122, 123, 124, 125, 126, 127, 128, 129, 130, 131, 132, 133, 134, 135, 136, 137, 138, 139, 140, 141, 142, 143, 144, 145, 146, 147, 148, 149, 150, 151, 152, 153, 154, 155, 156, 157, 158, 159, 160, 161, 162, 163, 164, 165, 166, 167, 168, 169, 170, 171, 172, 173, 174, 175, 176, 177, 178, 179, 180, 181, 182, 183, 184, 185, 186, 187, 188, 189, 190, 191, 192, 193, 194, 195, 196, 197, 198, 199, 200, 201, 202, 203, 204, 205, 206, 207, 208, 209, 210, 211, 212, 213, 214, 215, 216, 217, 218, 219, 220, 221, 222, 223, 224, 225, 226, 227, 228, 229, 230, 231, 232, 233, 234, 235, 236, 237, 238, 239, 240, 241, 242, 243, 244, 245, 246, 247, 248, 249, 250, 251, 252, 253, 254, 255, 256, 257, 258, 259, 260, 261, 262, 263, 264, 265, 266, 267, 268, 269, 270, 271, 272, 273, 274, 275, 276, 277, 278, 279, 280, 281, 282, 283, 284, 285, 286, 287, 288, 289, 290, 291, 292, 293, 294, 295, 296, 297, 298, 299, 300, 301, 302, 303, 304, 305, 306, 307, 308, 309, 310, 311, 312, 313, 314, 315, 316, 317, 318, 319, 320, 321, 322, 323, 324, 325, 326, 327, 328, 329, 330, 331, 332, 333, 334, 335, 336, 337, 338, 339, 340, 341, 342, 343, 344, 345, 346, 347, 348, 349, 350, 351, 352, 353, 354, 355, 356, 357, 358, 359, 360, 361, 362, 363, 364, 365, 366, 367, 368, 369, 370, 371, 372, 373, 374, 376, 377, 378, 379, 380, 381, 382, 383, 384, 385, 386, 387, 388, 389, 390, 391, 392, 393, 394, 395, 396, 397, 398, 399, 400, 401, 402, 403, 404, 405, 406, 407, 408, 409, 410, 411, 412, 413, 414, 415, 416, 417, 418, 419, 420, 421, 422, 423, 424, 425, 426, 427, 428, 429, 430, 431, 432, 433, 434, 435, 436, 437, 438, 439, 440, 441, 442, 443, 444, 445, 446, 447, 448, 449, 450, 451, 452, 453, 454, 455, 456, 457, 458, 459, 460, 461, 462, 463, 464, 465, 466, 467, 468, 469, 470, 471, 472, 473, 474, 475, 476, 477, 478, 479, 480, 482, 483, 485, 486, 488, 489, 490, 491, 492, 493, 494, 495, ]
Packed Weights: [324, 151, 651, 73, 536, 366, 58, 508, 38, 434, 70, 91, 425, 827, 124, 224, 628, 948, 578, 397, 977, 47, 859, 290, 145, 118, 309, 817, 181, 582, 639, 373, 548, 63, 60, 206, 681, 428, 315, 586, 454, 300, 795, 699, 245, 575, 526, 876, 730, 288, 981, 119, 419, 758, 152, 489, 40, 669, 765, 574, 876, 314, 696, 595, 580, 457, 840, 945, 475, 665, 61, 702, 648, 994, 822, 285, 386, 669, 23, 462, 169, 118, 59, 769, 130, 248, 391, 872, 81, 450, 550, 884, 820, 864, 279, 416, 359, 885, 958, 151, 177, 232, 234, 485, 590, 263, 5, 419, 370, 567, 954, 691, 516, 618, 677, 54, 900, 780, 875, 798, 393, 399, 104, 635, 63, 68, 209, 163, 341, 53, 1, 152, 102, 364, 26, 875, 615, 149, 253, 348, 365, 123, 849, 994, 466, 484, 86, 103, 343, 265, 829, 162, 24, 951, 529, 147, 544, 28, 529, 979, 864, 697, 262, 367, 168, 772, 533, 780, 330, 224, 812, 985, 853, 807, 819, 740, 227, 518, 356, 29, 28, 280, 260, 693, 957, 448, 938, 989, 956, 365, 221, 227, 197, 205, 625, 901, 841, 480, 653, 800, 85, 661, 910, 783, 751, 479, 179, 790, 333, 801, 972, 396, 402, 947, 725, 171, 128, 152, 905, 807, 147, 827, 981, 658, 351, 549, 131, 15, 971, 650, 527, 934, 434, 872, 827, 212, 252, 293, 241, 587, 260, 420, 132, 911, 354, 459, 584, 905, 421, 918, 502, 532, 524, 19, 441, 184, 4, 800, 173, 474, 726, 557, 326, 519, 556, 785, 107, 561, 249, 277, 773, 508, 562, 760, 913, 444, 613, 506, 513, 693, 453, 534, 479, 942, 700, 877, 943, 260, 560, 944, 840, 138, 122, 443, 73, 241, 74, 670, 784, 898, 155, 717, 661, 143, 883, 968, 220, 953, 399, 488, 990, 833, 162, 432, 516, 340, 196, 319, 723, 20, 555, 441, 19, 332, 624, 513, 65, 986, 789, 972, 105, 266, 40, 779, 271, 130, 423, 912, 819, 259, 150, 920, 571, 701, 90, 58, 689, 426, 73, 939, 635, 802, 84, 857, 67, 863, 454, 340, 554, 927, 268, 130, 527, 239, 110, 162, 51, 202, 312, 306, 760, 290, 501, 178, 348, 251, 16, 734, 552, 190, 475, 935, 107, 819, 433, 496, 835, 394, 507, 688, 983, 343, 833, 707, 636, 405, 348, 55, 130, 71, 741, 256, 164, 85, 842, 871, 671, 282, 243, 294, 460, 158, 446, 264, 962, 973, 548, 245, 966, 310, 357, 2, 382, 475, 503, 201, 505, 5, 265, 90, 400, 42, 23, 305, 233, 586, 530, 751, 658, 716, 880, 390, 327, 985, 150, 725, 644, 44, 836, 892, 628, 734, 813, 140, 524, 505, 835, 805, 827, 585, 893, 683, 694, 230, 32, 134, 361, 105, 836, 559, 628, 627, 681, 490, 4, 798, 749, 503, 536, 660, 737, 253, 266, 730, 740, 976, 494, 383, 480, 684, 767, 617, ]
Time Consuming: 0.0